(set-logic ALL)
(declare-fun var0 () String)
(assert (str.in_re var0 (re.++ (re.union (re.union (str.to_re "0") (str.to_re "1")) (re.union (str.to_re "2") (str.to_re "3"))) (re.++ (re.+ (re.union (str.to_re "4") (str.to_re "55"))) (re.++ (re.* (re.+ (str.to_re "66"))) (re.++ (re.* (re.* (str.to_re "777"))) (re.++ (re.+ (re.+ (str.to_re "88"))) (re.++ (re.* (re.+ (str.to_re "999"))) (re.++ (re.* (re.* (str.to_re "a"))) (re.++ (re.* (re.union (str.to_re "bbb") (str.to_re "cc"))) (re.++ (re.union (re.union (str.to_re "dd") (str.to_re "e")) (re.union (str.to_re "fff") (str.to_re "ggg"))) (re.++ (re.+ (re.union (str.to_re "h") (str.to_re "iii"))) (re.++ (re.+ (re.* (str.to_re "jj"))) (re.++ (re.* (re.* (str.to_re "kk"))) (re.++ (re.* (re.* (str.to_re "lll"))) (re.++ (re.* (re.+ (str.to_re "mm"))) (re.++ (re.+ (re.* (str.to_re "nn"))) (re.++ (re.union (re.union (str.to_re "ooo") (str.to_re "p")) (re.union (str.to_re "q") (str.to_re "rrr"))) (re.++ (re.* (re.* (str.to_re "s"))) (re.++ (re.* (re.union (str.to_re "t") (str.to_re "uu"))) (re.++ (re.union (re.+ (str.to_re "v")) (re.+ (str.to_re "www"))) (re.++ (re.union (re.+ (str.to_re "xxx")) (re.+ (str.to_re "yyy"))) (re.union (re.* (str.to_re "z")) (re.* (str.to_re "AAA")))))))))))))))))))))))))
(check-sat)